Running MiniSat on FULL_RUN_MINISAT\eda4aa84aeeb306468396fa82a6bba5a-pb_300_05_lb_17.cnf... 
============================[ Problem Statistics ]=============================
|                                                                             |
|  Number of variables:        145862                                         |
|  Number of clauses:          624664                                         |
|  Parse time:                   1.06 s                                       |
|                                                                             |
============================[ Search Statistics ]==============================
| Conflicts |          ORIGINAL         |          LEARNT          | Progress |
|           |    Vars  Clauses Literals |    Limit  Clauses Lit/Cl |          |
===============================================================================
|       100 |  116512   549580  1335272 |   201512      100     68 | 20.122 % |
|       250 |  116512   549580  1335272 |   221663      250     69 | 20.122 % |
|       475 |  116512   549580  1335272 |   243830      475     89 | 20.122 % |
|       812 |  116512   549580  1335272 |   268213      812     76 | 20.122 % |
|      1318 |  116512   549580  1335272 |   295034     1318    154 | 20.122 % |
|      2077 |  116512   549580  1335272 |   324538     2077    124 | 20.122 % |
|      3216 |  116512   549580  1335272 |   356991     3216    147 | 20.122 % |
|      4924 |  116512   549580  1335272 |   392691     4924    129 | 20.122 % |
|      7486 |  116512   549580  1335272 |   431960     7486    135 | 20.122 % |
|     11330 |  116512   549580  1335272 |   475156    11330    129 | 20.122 % |
|     17096 |  116512   549580  1335272 |   522671    17096    141 | 20.122 % |
ERROR: MiniSat process not found for FULL_RUN_MINISAT\f7e855b18105170b0718086d3f5b5923-j3045_10_rggt_b.cnf 
Finished MiniSat on FULL_RUN_MINISAT\f7e855b18105170b0718086d3f5b5923-j3045_10_rggt_b.cnf 
